Maximize
  obj: +10 x0 +4 x1 -4 x2 -9 x3 +10 x4 +8 x5 -1 x6 -4 x7 +5 x8 +7 x9 +4 x10 +8 x11 +6 x12 -7 x13 -10 x14 +1 x15 -5 x16 -2 x17 -10 x18 -9 x19 -56 x20 -181 x21 -184 x22 -114 x23 +25 x24 -9 x25 -55 x26 -128 x27 +120 x28 -94 x29 -69 x30 +156 x31 +14 x32 -165 x33 +117 x34 +154 x35 +140 x36 -124 x37 +17 x38 -149 x39 
Subject to
  c1: +6 x0 +0 x1 +0 x2 +15 x3 +0 x4 +19 x5 +0 x6 +7 x7 +0 x8 +11 x9 +2 x10 +7 x11 +0 x12 +0 x13 +17 x14 +11 x15 +16 x16 +10 x17 +12 x18 +0 x19 +15 x20 <= 56
  c2: +14 x0 +0 x1 +0 x2 +0 x3 +0 x4 +0 x5 +0 x6 +9 x7 +0 x8 +6 x9 +14 x10 +16 x11 +0 x12 +11 x13 +12 x14 +0 x15 +0 x16 +16 x17 +3 x18 +6 x19 +5 x21 <= 100
  c3: +11 x0 +16 x1 +0 x2 +13 x3 +0 x4 +6 x5 +0 x6 +0 x7 +0 x8 +0 x9 +12 x10 +0 x11 +0 x12 +0 x13 +11 x14 +0 x15 +4 x16 +0 x17 +13 x18 +12 x19 +5 x22 <= 62
  c4: +0 x0 +0 x1 +16 x2 +0 x3 +2 x4 +0 x5 +14 x6 +0 x7 +0 x8 +0 x9 +0 x10 +0 x11 +0 x12 +3 x13 +0 x14 +0 x15 +0 x16 +1 x17 +0 x18 +0 x19 +13 x23 <= 95
  c5: +0 x0 -1 x1 +0 x2 +9 x3 +0 x4 +0 x5 +20 x6 +10 x7 +12 x8 +0 x9 +0 x10 +13 x11 +6 x12 +1 x13 +0 x14 +0 x15 +14 x16 +6 x17 +0 x18 +13 x19 +20 x24 <= 58
  c6: +0 x0 +0 x1 +0 x2 +0 x3 +0 x4 +11 x5 +8 x6 +0 x7 +0 x8 +0 x9 +6 x10 +0 x11 +12 x12 +7 x13 +10 x14 +0 x15 +0 x16 +0 x17 +0 x18 +0 x19 +18 x25 <= 54
  c7: +0 x0 +0 x1 +0 x2 +13 x3 +0 x4 +13 x5 +10 x6 +0 x7 +0 x8 +0 x9 +8 x10 +0 x11 +0 x12 +0 x13 +18 x14 +0 x15 +0 x16 +0 x17 +16 x18 +0 x19 +19 x26 <= 100
  c8: +19 x0 +19 x1 +0 x2 +0 x3 +20 x4 +3 x5 +0 x6 +9 x7 +8 x8 +20 x9 +10 x10 +1 x11 +19 x12 +11 x13 +0 x14 +0 x15 +0 x16 +16 x17 +0 x18 +0 x19 +8 x27 <= 79
  c9: +0 x0 +1 x1 +0 x2 +0 x3 +15 x4 +0 x5 +8 x6 +7 x7 +10 x8 +0 x9 +14 x10 +0 x11 +0 x12 +0 x13 +0 x14 +0 x15 +0 x16 +0 x17 +9 x18 +18 x19 +7 x28 <= 57
  c10: +0 x0 +0 x1 +0 x2 +17 x3 +0 x4 +0 x5 +0 x6 +0 x7 +0 x8 +0 x9 +8 x10 +0 x11 +16 x12 +0 x13 +0 x14 +1 x15 +15 x16 +8 x17 +0 x18 +13 x19 +19 x29 <= 64
  c11: +0 x0 +0 x1 +0 x2 +0 x3 +11 x4 +0 x5 +0 x6 +0 x7 +12 x8 +10 x9 +19 x10 +0 x11 +0 x12 +9 x13 +0 x14 +9 x15 +9 x16 +17 x17 +0 x18 +11 x19 +10 x30 <= 83
  c12: +20 x0 +1 x1 +0 x2 +0 x3 +0 x4 +0 x5 +10 x6 +16 x7 +15 x8 +0 x9 +0 x10 +0 x11 +7 x12 +12 x13 +0 x14 +16 x15 +20 x16 +5 x17 +0 x18 +4 x19 +2 x31 <= 87
  c13: +0 x0 +0 x1 +0 x2 +0 x3 +0 x4 +0 x5 +0 x6 +0 x7 +12 x8 +0 x9 +0 x10 +0 x11 +0 x12 +0 x13 -1 x14 +0 x15 +0 x16 +0 x17 +0 x18 +0 x19 -1 x32 <= 61
  c14: +0 x0 -1 x1 +0 x2 +16 x3 +0 x4 +0 x5 +2 x6 +15 x7 -1 x8 +0 x9 +0 x10 +13 x11 +0 x12 +0 x13 +20 x14 +0 x15 +5 x16 +6 x17 +0 x18 +0 x19 +2 x33 <= 63
  c15: +0 x0 +0 x1 +0 x2 +0 x3 +0 x4 +1 x5 +16 x6 +0 x7 +0 x8 +3 x9 +0 x10 +0 x11 +0 x12 +4 x13 +0 x14 +0 x15 +0 x16 +14 x17 +0 x18 +18 x19 +3 x34 <= 91
  c16: +0 x0 +10 x1 +0 x2 +16 x3 +17 x4 +14 x5 +0 x6 +0 x7 +0 x8 +0 x9 +0 x10 +0 x11 +16 x12 +16 x13 +0 x14 +0 x15 +20 x16 +0 x17 +0 x18 +0 x19 +18 x35 <= 69
  c17: +0 x0 +0 x1 +0 x2 +0 x3 +0 x4 +13 x5 +15 x6 +8 x7 +0 x8 +0 x9 +0 x10 +0 x11 +0 x12 -1 x13 +7 x14 +12 x15 +0 x16 +0 x17 +0 x18 +0 x19 +10 x36 <= 74
  c18: +0 x0 +11 x1 +11 x2 +0 x3 +0 x4 +0 x5 +0 x6 +0 x7 +6 x8 +0 x9 +19 x10 +7 x11 +14 x12 +0 x13 +20 x14 +0 x15 +16 x16 +0 x17 +0 x18 +0 x19 +18 x37 <= 78
  c19: +15 x0 +11 x1 +0 x2 +0 x3 +12 x4 +0 x5 +0 x6 +0 x7 +0 x8 +0 x9 +0 x10 +0 x11 +4 x12 +0 x13 +1 x14 +18 x15 +0 x16 +0 x17 +1 x18 +8 x19 +5 x38 <= 53
  c20: +0 x0 +15 x1 +0 x2 +12 x3 +0 x4 +0 x5 +11 x6 +0 x7 +12 x8 +0 x9 +0 x10 +0 x11 +0 x12 +14 x13 +0 x14 +4 x15 +0 x16 +0 x17 +0 x18 +0 x19 +3 x39 <= 53
  c21: +0 x0 +20 x1 +0 x2 +10 x3 +0 x4 +1 x5 +18 x6 +5 x7 +0 x8 +1 x9 -1 x10 +18 x11 +0 x12 +0 x13 +10 x14 +4 x15 +0 x16 +9 x17 +0 x18 +0 x19 <= 60
  c22: +0 x0 +0 x1 +10 x2 +0 x3 +0 x4 +0 x5 +0 x6 +0 x7 +8 x8 -1 x9 +14 x10 +11 x11 +8 x12 +0 x13 +16 x14 +19 x15 +0 x16 +0 x17 +0 x18 +0 x19 <= 68
  c23: +1 x0 +8 x1 +20 x2 +0 x3 +0 x4 +19 x5 +0 x6 +19 x7 +20 x8 +15 x9 +0 x10 +0 x11 +0 x12 +0 x13 +0 x14 +0 x15 +4 x16 +11 x17 +0 x18 +0 x19 <= 92
  c24: +10 x0 +0 x1 +0 x2 +0 x3 +19 x4 +4 x5 +0 x6 +0 x7 +0 x8 +13 x9 +0 x10 +17 x11 +0 x12 +0 x13 +0 x14 +10 x15 +0 x16 +9 x17 +0 x18 +0 x19 <= 59
  c25: +15 x0 +9 x1 +0 x2 +0 x3 +0 x4 +9 x5 +0 x6 +0 x7 +2 x8 +0 x9 +0 x10 +0 x11 +0 x12 +0 x13 -1 x14 +16 x15 +12 x16 +9 x17 +14 x18 +0 x19 <= 74
  c26: +15 x0 +8 x1 +0 x2 +0 x3 -1 x4 +11 x5 +0 x6 +18 x7 +10 x8 +0 x9 +19 x10 +16 x11 +0 x12 +7 x13 +0 x14 +9 x15 +12 x16 +17 x17 +17 x18 +10 x19 <= 80
  c27: +11 x0 +1 x1 +0 x2 +4 x3 +0 x4 +0 x5 +0 x6 +0 x7 +8 x8 +15 x9 +0 x10 +7 x11 +0 x12 +20 x13 +17 x14 +3 x15 +9 x16 +0 x17 +0 x18 +0 x19 <= 50
  c28: +0 x0 +4 x1 +0 x2 +20 x3 +0 x4 +14 x5 +1 x6 +0 x7 +0 x8 +8 x9 +19 x10 +12 x11 +0 x12 +0 x13 +0 x14 +3 x15 +10 x16 +0 x17 +0 x18 +4 x19 <= 61
  c29: +0 x0 +0 x1 +0 x2 +2 x3 +0 x4 +4 x5 +0 x6 +0 x7 +14 x8 +0 x9 +0 x10 +1 x11 +14 x12 +17 x13 +0 x14 +0 x15 +11 x16 +18 x17 -1 x18 +13 x19 <= 67
  c30: +0 x0 +13 x1 +0 x2 +20 x3 +0 x4 +19 x5 +8 x6 +20 x7 +0 x8 +0 x9 +0 x10 +0 x11 +0 x12 +0 x13 +0 x14 +0 x15 +0 x16 +8 x17 +20 x18 +0 x19 <= 68
  c31: +11 x0 +6 x1 +9 x2 +9 x3 +5 x4 +7 x5 +0 x6 +16 x7 +8 x8 +3 x9 +11 x10 +0 x11 +6 x12 +0 x13 +7 x14 -1 x15 +14 x16 +3 x17 +0 x18 +11 x19 <= 79
  c32: +0 x0 +14 x1 +0 x2 +0 x3 +0 x4 +0 x5 +0 x6 +0 x7 +19 x8 +5 x9 +0 x10 +17 x11 +17 x12 +0 x13 +0 x14 +13 x15 +0 x16 +0 x17 +0 x18 +16 x19 <= 98
  c33: +0 x0 +0 x1 +0 x2 +1 x3 +15 x4 +0 x5 +9 x6 +15 x7 +0 x8 +14 x9 +0 x10 +0 x11 +0 x12 +0 x13 +16 x14 +0 x15 +0 x16 +0 x17 +0 x18 +0 x19 <= 67
  c34: +0 x0 +9 x1 +0 x2 +6 x3 +14 x4 +0 x5 +0 x6 -1 x7 +20 x8 +0 x9 +4 x10 +8 x11 +0 x12 +0 x13 +0 x14 +16 x15 +9 x16 +1 x17 +19 x18 +5 x19 <= 65
  c35: +6 x0 +0 x1 +12 x2 +0 x3 +0 x4 +0 x5 +0 x6 +14 x7 +10 x8 +17 x9 +0 x10 +0 x11 +11 x12 +4 x13 +15 x14 +3 x15 +8 x16 +0 x17 +6 x18 +0 x19 <= 92
  c36: +0 x0 +0 x1 +0 x2 +0 x3 +0 x4 +0 x5 +8 x6 +5 x7 +10 x8 +6 x9 +0 x10 +0 x11 +3 x12 +0 x13 +6 x14 +19 x15 +0 x16 +0 x17 +0 x18 +10 x19 <= 50
  c37: +0 x0 +11 x1 +0 x2 +0 x3 +0 x4 +0 x5 -1 x6 +1 x7 +9 x8 +1 x9 +6 x10 +3 x11 +0 x12 +0 x13 +0 x14 +0 x15 +16 x16 +0 x17 +0 x18 +19 x19 <= 95
  c38: +0 x0 +5 x1 +11 x2 +0 x3 +0 x4 +10 x5 +20 x6 +0 x7 +16 x8 +10 x9 +0 x10 +0 x11 +0 x12 +9 x13 +9 x14 +19 x15 +0 x16 +0 x17 +1 x18 +0 x19 <= 65
  c39: +0 x0 +0 x1 +0 x2 +0 x3 +0 x4 +0 x5 +0 x6 +15 x7 +0 x8 +13 x9 +0 x10 +14 x11 +0 x12 +0 x13 +0 x14 +0 x15 +15 x16 +3 x17 +2 x18 +0 x19 <= 79
  c40: + x20 + x21 + x22 + x23 + x24 + x25 + x26 + x27 + x28 + x29 + x30 + x31 + x32 + x33 + x34 + x35 + x36 + x37 + x38 + x39 <= 6.666667
Binary
 x20
 x21
 x22
 x23
 x24
 x25
 x26
 x27
 x28
 x29
 x30
 x31
 x32
 x33
 x34
 x35
 x36
 x37
 x38
 x39
End
